; Start decls (1)
(declare-fun d_ackermann!0 () (_ BitVec 64))
; End decls
; Start constraints (3)
(assert (fp.lt ((_ to_fp 11 53) d_ackermann!0) ((_ to_fp 11 53) #x4008000000000000)))
(assert (fp.gt ((_ to_fp 11 53) d_ackermann!0) ((_ to_fp 11 53) #x3ff0000000000000)))
(assert (let ((a!1 (bvadd #x0000000000000c02
                  (bvand (concat #x0000000000000
                                 ((_ extract 63 52) d_ackermann!0))
                         #x00000000000007ff)))
      (a!5 ((_ extract 62 0)
             (bvor (concat ((_ extract 52 0) d_ackermann!0) #b00000000000)
                   #x8000000000000000)))
      (a!7 ((_ extract 61 0)
             (bvor (concat ((_ extract 52 0) d_ackermann!0) #b00000000000)
                   #x8000000000000000)))
      (a!9 ((_ extract 60 0)
             (bvor (concat ((_ extract 52 0) d_ackermann!0) #b00000000000)
                   #x8000000000000000)))
      (a!11 ((_ extract 59 0)
              (bvor (concat ((_ extract 52 0) d_ackermann!0) #b00000000000)
                    #x8000000000000000)))
      (a!13 ((_ extract 58 0)
              (bvor (concat ((_ extract 52 0) d_ackermann!0) #b00000000000)
                    #x8000000000000000)))
      (a!15 ((_ extract 57 0)
              (bvor (concat ((_ extract 52 0) d_ackermann!0) #b00000000000)
                    #x8000000000000000)))
      (a!17 ((_ extract 56 0)
              (bvor (concat ((_ extract 52 0) d_ackermann!0) #b00000000000)
                    #x8000000000000000)))
      (a!19 ((_ extract 55 0)
              (bvor (concat ((_ extract 52 0) d_ackermann!0) #b00000000000)
                    #x8000000000000000)))
      (a!21 ((_ extract 54 0)
              (bvor (concat ((_ extract 52 0) d_ackermann!0) #b00000000000)
                    #x8000000000000000)))
      (a!23 ((_ extract 53 0)
              (bvor (concat ((_ extract 52 0) d_ackermann!0) #b00000000000)
                    #x8000000000000000)))
      (a!25 ((_ extract 52 0)
              (bvor (concat ((_ extract 52 0) d_ackermann!0) #b00000000000)
                    #x8000000000000000)))
      (a!27 ((_ extract 51 0)
              (bvor (concat ((_ extract 52 0) d_ackermann!0) #b00000000000)
                    #x8000000000000000)))
      (a!29 ((_ extract 50 0)
              (bvor (concat ((_ extract 52 0) d_ackermann!0) #b00000000000)
                    #x8000000000000000)))
      (a!31 ((_ extract 49 0)
              (bvor (concat ((_ extract 52 0) d_ackermann!0) #b00000000000)
                    #x8000000000000000)))
      (a!33 ((_ extract 48 0)
              (bvor (concat ((_ extract 52 0) d_ackermann!0) #b00000000000)
                    #x8000000000000000)))
      (a!35 ((_ extract 47 0)
              (bvor (concat ((_ extract 52 0) d_ackermann!0) #b00000000000)
                    #x8000000000000000)))
      (a!37 ((_ extract 46 0)
              (bvor (concat ((_ extract 52 0) d_ackermann!0) #b00000000000)
                    #x8000000000000000)))
      (a!39 ((_ extract 45 0)
              (bvor (concat ((_ extract 52 0) d_ackermann!0) #b00000000000)
                    #x8000000000000000)))
      (a!41 ((_ extract 44 0)
              (bvor (concat ((_ extract 52 0) d_ackermann!0) #b00000000000)
                    #x8000000000000000)))
      (a!43 ((_ extract 43 0)
              (bvor (concat ((_ extract 52 0) d_ackermann!0) #b00000000000)
                    #x8000000000000000)))
      (a!45 ((_ extract 42 0)
              (bvor (concat ((_ extract 52 0) d_ackermann!0) #b00000000000)
                    #x8000000000000000)))
      (a!47 ((_ extract 41 0)
              (bvor (concat ((_ extract 52 0) d_ackermann!0) #b00000000000)
                    #x8000000000000000)))
      (a!49 ((_ extract 40 0)
              (bvor (concat ((_ extract 52 0) d_ackermann!0) #b00000000000)
                    #x8000000000000000)))
      (a!51 ((_ extract 39 0)
              (bvor (concat ((_ extract 52 0) d_ackermann!0) #b00000000000)
                    #x8000000000000000)))
      (a!53 ((_ extract 38 0)
              (bvor (concat ((_ extract 52 0) d_ackermann!0) #b00000000000)
                    #x8000000000000000)))
      (a!55 ((_ extract 37 0)
              (bvor (concat ((_ extract 52 0) d_ackermann!0) #b00000000000)
                    #x8000000000000000)))
      (a!57 ((_ extract 36 0)
              (bvor (concat ((_ extract 52 0) d_ackermann!0) #b00000000000)
                    #x8000000000000000)))
      (a!59 ((_ extract 35 0)
              (bvor (concat ((_ extract 52 0) d_ackermann!0) #b00000000000)
                    #x8000000000000000)))
      (a!61 ((_ extract 34 0)
              (bvor (concat ((_ extract 52 0) d_ackermann!0) #b00000000000)
                    #x8000000000000000)))
      (a!63 ((_ extract 33 0)
              (bvor (concat ((_ extract 52 0) d_ackermann!0) #b00000000000)
                    #x8000000000000000)))
      (a!65 ((_ extract 32 0)
              (bvor (concat ((_ extract 52 0) d_ackermann!0) #b00000000000)
                    #x8000000000000000)))
      (a!67 ((_ extract 31 0)
              (bvor (concat ((_ extract 52 0) d_ackermann!0) #b00000000000)
                    #x8000000000000000)))
      (a!69 ((_ extract 30 0)
              (bvor (concat ((_ extract 52 0) d_ackermann!0) #b00000000000)
                    #x8000000000000000)))
      (a!71 ((_ extract 29 0)
              (bvor (concat ((_ extract 52 0) d_ackermann!0) #b00000000000)
                    #x8000000000000000)))
      (a!73 ((_ extract 28 0)
              (bvor (concat ((_ extract 52 0) d_ackermann!0) #b00000000000)
                    #x8000000000000000)))
      (a!75 ((_ extract 27 0)
              (bvor (concat ((_ extract 52 0) d_ackermann!0) #b00000000000)
                    #x8000000000000000)))
      (a!77 ((_ extract 26 0)
              (bvor (concat ((_ extract 52 0) d_ackermann!0) #b00000000000)
                    #x8000000000000000)))
      (a!79 ((_ extract 25 0)
              (bvor (concat ((_ extract 52 0) d_ackermann!0) #b00000000000)
                    #x8000000000000000)))
      (a!81 ((_ extract 24 0)
              (bvor (concat ((_ extract 52 0) d_ackermann!0) #b00000000000)
                    #x8000000000000000)))
      (a!83 ((_ extract 23 0)
              (bvor (concat ((_ extract 52 0) d_ackermann!0) #b00000000000)
                    #x8000000000000000)))
      (a!85 ((_ extract 22 0)
              (bvor (concat ((_ extract 52 0) d_ackermann!0) #b00000000000)
                    #x8000000000000000)))
      (a!87 ((_ extract 21 0)
              (bvor (concat ((_ extract 52 0) d_ackermann!0) #b00000000000)
                    #x8000000000000000)))
      (a!89 ((_ extract 20 0)
              (bvor (concat ((_ extract 52 0) d_ackermann!0) #b00000000000)
                    #x8000000000000000)))
      (a!91 ((_ extract 19 0)
              (bvor (concat ((_ extract 52 0) d_ackermann!0) #b00000000000)
                    #x8000000000000000)))
      (a!93 ((_ extract 18 0)
              (bvor (concat ((_ extract 52 0) d_ackermann!0) #b00000000000)
                    #x8000000000000000)))
      (a!95 ((_ extract 17 0)
              (bvor (concat ((_ extract 52 0) d_ackermann!0) #b00000000000)
                    #x8000000000000000)))
      (a!97 ((_ extract 16 0)
              (bvor (concat ((_ extract 52 0) d_ackermann!0) #b00000000000)
                    #x8000000000000000)))
      (a!99 ((_ extract 15 0)
              (bvor (concat ((_ extract 52 0) d_ackermann!0) #b00000000000)
                    #x8000000000000000)))
      (a!101 ((_ extract 14 0)
               (bvor (concat ((_ extract 52 0) d_ackermann!0) #b00000000000)
                     #x8000000000000000)))
      (a!103 ((_ extract 13 0)
               (bvor (concat ((_ extract 52 0) d_ackermann!0) #b00000000000)
                     #x8000000000000000)))
      (a!105 ((_ extract 12 0)
               (bvor (concat ((_ extract 52 0) d_ackermann!0) #b00000000000)
                     #x8000000000000000)))
      (a!107 ((_ extract 11 0)
               (bvor (concat ((_ extract 52 0) d_ackermann!0) #b00000000000)
                     #x8000000000000000)))
      (a!109 ((_ extract 10 0)
               (bvor (concat ((_ extract 52 0) d_ackermann!0) #b00000000000)
                     #x8000000000000000)))
      (a!111 ((_ extract 9 0)
               (bvor (concat ((_ extract 52 0) d_ackermann!0) #b00000000000)
                     #x8000000000000000)))
      (a!113 ((_ extract 8 0)
               (bvor (concat ((_ extract 52 0) d_ackermann!0) #b00000000000)
                     #x8000000000000000)))
      (a!115 ((_ extract 7 0)
               (bvor (concat ((_ extract 52 0) d_ackermann!0) #b00000000000)
                     #x8000000000000000)))
      (a!117 ((_ extract 6 0)
               (bvor (concat ((_ extract 52 0) d_ackermann!0) #b00000000000)
                     #x8000000000000000)))
      (a!119 ((_ extract 5 0)
               (bvor (concat ((_ extract 52 0) d_ackermann!0) #b00000000000)
                     #x8000000000000000)))
      (a!121 ((_ extract 4 0)
               (bvor (concat ((_ extract 52 0) d_ackermann!0) #b00000000000)
                     #x8000000000000000)))
      (a!123 ((_ extract 3 0)
               (bvor (concat ((_ extract 52 0) d_ackermann!0) #b00000000000)
                     #x8000000000000000)))
      (a!125 ((_ extract 2 0)
               (bvor (concat ((_ extract 52 0) d_ackermann!0) #b00000000000)
                     #x8000000000000000)))
      (a!127 ((_ extract 1 0)
               (bvor (concat ((_ extract 52 0) d_ackermann!0) #b00000000000)
                     #x8000000000000000)))
      (a!129 ((_ extract 0 0)
               (bvor (concat ((_ extract 52 0) d_ackermann!0) #b00000000000)
                     #x8000000000000000))))
(let ((a!2 (bvult (concat #x00000000 (bvand ((_ extract 31 0) a!1) #x0000003f))
                  #x0000000000000040))
      (a!3 (= (concat #x00000000 (bvand ((_ extract 31 0) a!1) #x0000003f))
              #x0000000000000000))
      (a!4 (= (concat #x00000000 (bvand ((_ extract 31 0) a!1) #x0000003f))
              #x0000000000000001))
      (a!6 (= (concat #x00000000 (bvand ((_ extract 31 0) a!1) #x0000003f))
              #x0000000000000002))
      (a!8 (= (concat #x00000000 (bvand ((_ extract 31 0) a!1) #x0000003f))
              #x0000000000000003))
      (a!10 (= (concat #x00000000 (bvand ((_ extract 31 0) a!1) #x0000003f))
               #x0000000000000004))
      (a!12 (= (concat #x00000000 (bvand ((_ extract 31 0) a!1) #x0000003f))
               #x0000000000000005))
      (a!14 (= (concat #x00000000 (bvand ((_ extract 31 0) a!1) #x0000003f))
               #x0000000000000006))
      (a!16 (= (concat #x00000000 (bvand ((_ extract 31 0) a!1) #x0000003f))
               #x0000000000000007))
      (a!18 (= (concat #x00000000 (bvand ((_ extract 31 0) a!1) #x0000003f))
               #x0000000000000008))
      (a!20 (= (concat #x00000000 (bvand ((_ extract 31 0) a!1) #x0000003f))
               #x0000000000000009))
      (a!22 (= (concat #x00000000 (bvand ((_ extract 31 0) a!1) #x0000003f))
               #x000000000000000a))
      (a!24 (= (concat #x00000000 (bvand ((_ extract 31 0) a!1) #x0000003f))
               #x000000000000000b))
      (a!26 (= (concat #x00000000 (bvand ((_ extract 31 0) a!1) #x0000003f))
               #x000000000000000c))
      (a!28 (= (concat #x00000000 (bvand ((_ extract 31 0) a!1) #x0000003f))
               #x000000000000000d))
      (a!30 (= (concat #x00000000 (bvand ((_ extract 31 0) a!1) #x0000003f))
               #x000000000000000e))
      (a!32 (= (concat #x00000000 (bvand ((_ extract 31 0) a!1) #x0000003f))
               #x000000000000000f))
      (a!34 (= (concat #x00000000 (bvand ((_ extract 31 0) a!1) #x0000003f))
               #x0000000000000010))
      (a!36 (= (concat #x00000000 (bvand ((_ extract 31 0) a!1) #x0000003f))
               #x0000000000000011))
      (a!38 (= (concat #x00000000 (bvand ((_ extract 31 0) a!1) #x0000003f))
               #x0000000000000012))
      (a!40 (= (concat #x00000000 (bvand ((_ extract 31 0) a!1) #x0000003f))
               #x0000000000000013))
      (a!42 (= (concat #x00000000 (bvand ((_ extract 31 0) a!1) #x0000003f))
               #x0000000000000014))
      (a!44 (= (concat #x00000000 (bvand ((_ extract 31 0) a!1) #x0000003f))
               #x0000000000000015))
      (a!46 (= (concat #x00000000 (bvand ((_ extract 31 0) a!1) #x0000003f))
               #x0000000000000016))
      (a!48 (= (concat #x00000000 (bvand ((_ extract 31 0) a!1) #x0000003f))
               #x0000000000000017))
      (a!50 (= (concat #x00000000 (bvand ((_ extract 31 0) a!1) #x0000003f))
               #x0000000000000018))
      (a!52 (= (concat #x00000000 (bvand ((_ extract 31 0) a!1) #x0000003f))
               #x0000000000000019))
      (a!54 (= (concat #x00000000 (bvand ((_ extract 31 0) a!1) #x0000003f))
               #x000000000000001a))
      (a!56 (= (concat #x00000000 (bvand ((_ extract 31 0) a!1) #x0000003f))
               #x000000000000001b))
      (a!58 (= (concat #x00000000 (bvand ((_ extract 31 0) a!1) #x0000003f))
               #x000000000000001c))
      (a!60 (= (concat #x00000000 (bvand ((_ extract 31 0) a!1) #x0000003f))
               #x000000000000001d))
      (a!62 (= (concat #x00000000 (bvand ((_ extract 31 0) a!1) #x0000003f))
               #x000000000000001e))
      (a!64 (= (concat #x00000000 (bvand ((_ extract 31 0) a!1) #x0000003f))
               #x000000000000001f))
      (a!66 (= (concat #x00000000 (bvand ((_ extract 31 0) a!1) #x0000003f))
               #x0000000000000020))
      (a!68 (= (concat #x00000000 (bvand ((_ extract 31 0) a!1) #x0000003f))
               #x0000000000000021))
      (a!70 (= (concat #x00000000 (bvand ((_ extract 31 0) a!1) #x0000003f))
               #x0000000000000022))
      (a!72 (= (concat #x00000000 (bvand ((_ extract 31 0) a!1) #x0000003f))
               #x0000000000000023))
      (a!74 (= (concat #x00000000 (bvand ((_ extract 31 0) a!1) #x0000003f))
               #x0000000000000024))
      (a!76 (= (concat #x00000000 (bvand ((_ extract 31 0) a!1) #x0000003f))
               #x0000000000000025))
      (a!78 (= (concat #x00000000 (bvand ((_ extract 31 0) a!1) #x0000003f))
               #x0000000000000026))
      (a!80 (= (concat #x00000000 (bvand ((_ extract 31 0) a!1) #x0000003f))
               #x0000000000000027))
      (a!82 (= (concat #x00000000 (bvand ((_ extract 31 0) a!1) #x0000003f))
               #x0000000000000028))
      (a!84 (= (concat #x00000000 (bvand ((_ extract 31 0) a!1) #x0000003f))
               #x0000000000000029))
      (a!86 (= (concat #x00000000 (bvand ((_ extract 31 0) a!1) #x0000003f))
               #x000000000000002a))
      (a!88 (= (concat #x00000000 (bvand ((_ extract 31 0) a!1) #x0000003f))
               #x000000000000002b))
      (a!90 (= (concat #x00000000 (bvand ((_ extract 31 0) a!1) #x0000003f))
               #x000000000000002c))
      (a!92 (= (concat #x00000000 (bvand ((_ extract 31 0) a!1) #x0000003f))
               #x000000000000002d))
      (a!94 (= (concat #x00000000 (bvand ((_ extract 31 0) a!1) #x0000003f))
               #x000000000000002e))
      (a!96 (= (concat #x00000000 (bvand ((_ extract 31 0) a!1) #x0000003f))
               #x000000000000002f))
      (a!98 (= (concat #x00000000 (bvand ((_ extract 31 0) a!1) #x0000003f))
               #x0000000000000030))
      (a!100 (= (concat #x00000000 (bvand ((_ extract 31 0) a!1) #x0000003f))
                #x0000000000000031))
      (a!102 (= (concat #x00000000 (bvand ((_ extract 31 0) a!1) #x0000003f))
                #x0000000000000032))
      (a!104 (= (concat #x00000000 (bvand ((_ extract 31 0) a!1) #x0000003f))
                #x0000000000000033))
      (a!106 (= (concat #x00000000 (bvand ((_ extract 31 0) a!1) #x0000003f))
                #x0000000000000034))
      (a!108 (= (concat #x00000000 (bvand ((_ extract 31 0) a!1) #x0000003f))
                #x0000000000000035))
      (a!110 (= (concat #x00000000 (bvand ((_ extract 31 0) a!1) #x0000003f))
                #x0000000000000036))
      (a!112 (= (concat #x00000000 (bvand ((_ extract 31 0) a!1) #x0000003f))
                #x0000000000000037))
      (a!114 (= (concat #x00000000 (bvand ((_ extract 31 0) a!1) #x0000003f))
                #x0000000000000038))
      (a!116 (= (concat #x00000000 (bvand ((_ extract 31 0) a!1) #x0000003f))
                #x0000000000000039))
      (a!118 (= (concat #x00000000 (bvand ((_ extract 31 0) a!1) #x0000003f))
                #x000000000000003a))
      (a!120 (= (concat #x00000000 (bvand ((_ extract 31 0) a!1) #x0000003f))
                #x000000000000003b))
      (a!122 (= (concat #x00000000 (bvand ((_ extract 31 0) a!1) #x0000003f))
                #x000000000000003c))
      (a!124 (= (concat #x00000000 (bvand ((_ extract 31 0) a!1) #x0000003f))
                #x000000000000003d))
      (a!126 (= (concat #x00000000 (bvand ((_ extract 31 0) a!1) #x0000003f))
                #x000000000000003e))
      (a!128 (= (concat #x00000000 (bvand ((_ extract 31 0) a!1) #x0000003f))
                #x000000000000003f)))
(let ((a!130 (ite a!124
                  (concat a!125
                          #b0000000000000000000000000000000000000000000000000000000000000)
                  (ite a!126
                       (concat a!127
                               #b00000000000000000000000000000000000000000000000000000000000000)
                       (ite a!128
                            (concat a!129
                                    #b000000000000000000000000000000000000000000000000000000000000000)
                            #x0000000000000000)))))
(let ((a!131 (ite a!118
                  (concat a!119
                          #b0000000000000000000000000000000000000000000000000000000000)
                  (ite a!120
                       (concat a!121
                               #b00000000000000000000000000000000000000000000000000000000000)
                       (ite a!122 (concat a!123 #x000000000000000) a!130)))))
(let ((a!132 (ite a!112
                  (concat a!113
                          #b0000000000000000000000000000000000000000000000000000000)
                  (ite a!114
                       (concat a!115 #x00000000000000)
                       (ite a!116
                            (concat a!117
                                    #b000000000000000000000000000000000000000000000000000000000)
                            a!131)))))
(let ((a!133 (ite a!106
                  (concat a!107 #x0000000000000)
                  (ite a!108
                       (concat a!109
                               #b00000000000000000000000000000000000000000000000000000)
                       (ite a!110
                            (concat a!111
                                    #b000000000000000000000000000000000000000000000000000000)
                            a!132)))))
(let ((a!134 (ite a!100
                  (concat a!101
                          #b0000000000000000000000000000000000000000000000000)
                  (ite a!102
                       (concat a!103
                               #b00000000000000000000000000000000000000000000000000)
                       (ite a!104
                            (concat a!105
                                    #b000000000000000000000000000000000000000000000000000)
                            a!133)))))
(let ((a!135 (ite a!94
                  (concat a!95 #b0000000000000000000000000000000000000000000000)
                  (ite a!96
                       (concat a!97
                               #b00000000000000000000000000000000000000000000000)
                       (ite a!98 (concat a!99 #x000000000000) a!134)))))
(let ((a!136 (ite a!88
                  (concat a!89 #b0000000000000000000000000000000000000000000)
                  (ite a!90
                       (concat a!91 #x00000000000)
                       (ite a!92
                            (concat a!93
                                    #b000000000000000000000000000000000000000000000)
                            a!135)))))
(let ((a!137 (ite a!82
                  (concat a!83 #x0000000000)
                  (ite a!84
                       (concat a!85 #b00000000000000000000000000000000000000000)
                       (ite a!86
                            (concat a!87
                                    #b000000000000000000000000000000000000000000)
                            a!136)))))
(let ((a!138 (ite a!76
                  (concat a!77 #b0000000000000000000000000000000000000)
                  (ite a!78
                       (concat a!79 #b00000000000000000000000000000000000000)
                       (ite a!80
                            (concat a!81
                                    #b000000000000000000000000000000000000000)
                            a!137)))))
(let ((a!139 (ite a!70
                  (concat a!71 #b0000000000000000000000000000000000)
                  (ite a!72
                       (concat a!73 #b00000000000000000000000000000000000)
                       (ite a!74 (concat a!75 #x000000000) a!138)))))
(let ((a!140 (ite a!64
                  (concat a!65 #b0000000000000000000000000000000)
                  (ite a!66
                       (concat a!67 #x00000000)
                       (ite a!68
                            (concat a!69 #b000000000000000000000000000000000)
                            a!139)))))
(let ((a!141 (ite a!58
                  (concat a!59 #x0000000)
                  (ite a!60
                       (concat a!61 #b00000000000000000000000000000)
                       (ite a!62
                            (concat a!63 #b000000000000000000000000000000)
                            a!140)))))
(let ((a!142 (ite a!52
                  (concat a!53 #b0000000000000000000000000)
                  (ite a!54
                       (concat a!55 #b00000000000000000000000000)
                       (ite a!56
                            (concat a!57 #b000000000000000000000000000)
                            a!141)))))
(let ((a!143 (ite a!46
                  (concat a!47 #b0000000000000000000000)
                  (ite a!48
                       (concat a!49 #b00000000000000000000000)
                       (ite a!50 (concat a!51 #x000000) a!142)))))
(let ((a!144 (ite a!40
                  (concat a!41 #b0000000000000000000)
                  (ite a!42
                       (concat a!43 #x00000)
                       (ite a!44 (concat a!45 #b000000000000000000000) a!143)))))
(let ((a!145 (ite a!34
                  (concat a!35 #x0000)
                  (ite a!36
                       (concat a!37 #b00000000000000000)
                       (ite a!38 (concat a!39 #b000000000000000000) a!144)))))
(let ((a!146 (ite a!28
                  (concat a!29 #b0000000000000)
                  (ite a!30
                       (concat a!31 #b00000000000000)
                       (ite a!32 (concat a!33 #b000000000000000) a!145)))))
(let ((a!147 (ite a!22
                  (concat a!23 #b0000000000)
                  (ite a!24
                       (concat a!25 #b00000000000)
                       (ite a!26 (concat a!27 #x000) a!146)))))
(let ((a!148 (ite a!16
                  (concat a!17 #b0000000)
                  (ite a!18
                       (concat a!19 #x00)
                       (ite a!20 (concat a!21 #b000000000) a!147)))))
(let ((a!149 (ite a!10
                  (concat a!11 #x0)
                  (ite a!12
                       (concat a!13 #b00000)
                       (ite a!14 (concat a!15 #b000000) a!148)))))
(let ((a!150 (ite a!4
                  (concat a!5 #b0)
                  (ite a!6 (concat a!7 #b00) (ite a!8 (concat a!9 #b000) a!149)))))
(let ((a!151 (ite a!3
                  (bvor (concat ((_ extract 52 0) d_ackermann!0) #b00000000000)
                        #x8000000000000000)
                  a!150)))
  (not (not (= #x0000000000000000 (ite a!2 a!151 #x0000000000000000)))))))))))))))))))))))))))))
; End constraints
(check-sat)
(exit)
